\ Model Museum Puzzle
\ LP format - for model browsing. Use MPS format to capture full model detail.
Minimize
  x(1,2) + x(1,3) + x(1,4) + x(2,1) + x(2,2) + x(2,3) + x(2,4) + x(2,6)
   + x(2,7) + x(2,8) + x(2,9) + x(3,1) + x(3,2) + x(3,3) + x(3,4) + x(3,5)
   + x(3,6) + x(3,7) + x(3,8) + x(3,9) + x(3,10) + x(4,1) + x(4,2) + x(4,3)
   + x(4,4) + x(4,5) + x(4,6) + x(4,7) + x(4,8) + x(4,9) + x(5,1) + x(5,2)
   + x(5,3) + x(5,4) + x(5,5) + x(5,6) + x(5,7) + x(5,8) + x(5,9) + x(5,10)
   + x(6,1) + x(6,2) + x(6,3) + x(6,5) + x(6,6) + x(6,7) + x(6,8) + x(6,9)
   + x(6,10) + x(7,1) + x(7,2) + x(7,3) + x(7,4) + x(7,6) + x(7,8)
   + x(7,10) + x(8,1) + x(8,2) + x(8,4) + x(8,5) + x(8,7) + x(8,9)
   + x(8,10) + x(9,1) + x(9,2) + x(9,3) + x(9,4) + x(9,5) + x(9,6) + x(9,7)
   + x(9,8) + x(9,9) + x(9,10) + x(10,1) + x(10,2) + x(10,3) + x(10,5)
   + x(10,6) + x(10,7) + x(10,8) + x(10,9) + x(10,10)
Subject To
 wall(1,1)_constraint: x(1,2) + x(2,1) = 0
 light(1,2)_constraint_1: x(1,2) + x(1,3) + x(1,4) <= 1
 light(1,2)_constraint_2: x(1,2) + x(2,2) + x(3,2) + x(4,2) + x(5,2)
   + x(6,2) + x(7,2) + x(8,2) + x(9,2) + x(10,2) <= 1
 hallway(1,2)_constraint: x(1,2) + x(1,3) + x(1,4) + x(2,2) + x(3,2)
   + x(4,2) + x(5,2) + x(6,2) + x(7,2) + x(8,2) + x(9,2) + x(10,2) >= 1
 light(1,3)_constraint_1: x(1,2) + x(1,3) + x(1,4) <= 1
 light(1,3)_constraint_2: x(1,3) + x(2,3) + x(3,3) + x(4,3) + x(5,3)
   + x(6,3) + x(7,3) <= 1
 hallway(1,3)_constraint: x(1,2) + x(1,3) + x(1,4) + x(2,3) + x(3,3)
   + x(4,3) + x(5,3) + x(6,3) + x(7,3) >= 1
 light(1,4)_constraint_1: x(1,2) + x(1,3) + x(1,4) <= 1
 light(1,4)_constraint_2: x(1,4) + x(2,4) + x(3,4) + x(4,4) + x(5,4) <= 1
 hallway(1,4)_constraint: x(1,2) + x(1,3) + x(1,4) + x(2,4) + x(3,4)
   + x(4,4) + x(5,4) >= 1
 wall(1,6)_constraint: x(2,6) = 0
 wall(1,7)_constraint: x(2,7) = 0
 wall(1,8)_constraint: x(2,8) = 0
 wall(1,9)_constraint: x(2,9) = 0
 light(2,1)_constraint_1: x(2,1) + x(2,2) + x(2,3) + x(2,4) <= 1
 light(2,1)_constraint_2: x(2,1) + x(3,1) + x(4,1) + x(5,1) + x(6,1)
   + x(7,1) + x(8,1) + x(9,1) + x(10,1) <= 1
 hallway(2,1)_constraint: x(2,1) + x(2,2) + x(2,3) + x(2,4) + x(3,1)
   + x(4,1) + x(5,1) + x(6,1) + x(7,1) + x(8,1) + x(9,1) + x(10,1) >= 1
 light(2,2)_constraint_1: x(2,1) + x(2,2) + x(2,3) + x(2,4) <= 1
 light(2,2)_constraint_2: x(1,2) + x(2,2) + x(3,2) + x(4,2) + x(5,2)
   + x(6,2) + x(7,2) + x(8,2) + x(9,2) + x(10,2) <= 1
 hallway(2,2)_constraint: x(1,2) + x(2,1) + x(2,2) + x(2,3) + x(2,4)
   + x(3,2) + x(4,2) + x(5,2) + x(6,2) + x(7,2) + x(8,2) + x(9,2) + x(10,2)
   >= 1
 light(2,3)_constraint_1: x(2,1) + x(2,2) + x(2,3) + x(2,4) <= 1
 light(2,3)_constraint_2: x(1,3) + x(2,3) + x(3,3) + x(4,3) + x(5,3)
   + x(6,3) + x(7,3) <= 1
 hallway(2,3)_constraint: x(1,3) + x(2,1) + x(2,2) + x(2,3) + x(2,4)
   + x(3,3) + x(4,3) + x(5,3) + x(6,3) + x(7,3) >= 1
 light(2,4)_constraint_1: x(2,1) + x(2,2) + x(2,3) + x(2,4) <= 1
 light(2,4)_constraint_2: x(1,4) + x(2,4) + x(3,4) + x(4,4) + x(5,4) <= 1
 hallway(2,4)_constraint: x(1,4) + x(2,1) + x(2,2) + x(2,3) + x(2,4)
   + x(3,4) + x(4,4) + x(5,4) >= 1
 light(2,6)_constraint_1: x(2,6) + x(2,7) + x(2,8) + x(2,9) <= 1
 light(2,6)_constraint_2: x(2,6) + x(3,6) + x(4,6) + x(5,6) + x(6,6)
   + x(7,6) <= 1
 hallway(2,6)_constraint: x(2,6) + x(2,7) + x(2,8) + x(2,9) + x(3,6)
   + x(4,6) + x(5,6) + x(6,6) + x(7,6) >= 1
 light(2,7)_constraint_1: x(2,6) + x(2,7) + x(2,8) + x(2,9) <= 1
 light(2,7)_constraint_2: x(2,7) + x(3,7) + x(4,7) + x(5,7) + x(6,7) <= 1
 hallway(2,7)_constraint: x(2,6) + x(2,7) + x(2,8) + x(2,9) + x(3,7)
   + x(4,7) + x(5,7) + x(6,7) >= 1
 light(2,8)_constraint_1: x(2,6) + x(2,7) + x(2,8) + x(2,9) <= 1
 light(2,8)_constraint_2: x(2,8) + x(3,8) + x(4,8) + x(5,8) + x(6,8)
   + x(7,8) <= 1
 hallway(2,8)_constraint: x(2,6) + x(2,7) + x(2,8) + x(2,9) + x(3,8)
   + x(4,8) + x(5,8) + x(6,8) + x(7,8) >= 1
 light(2,9)_constraint_1: x(2,6) + x(2,7) + x(2,8) + x(2,9) <= 1
 light(2,9)_constraint_2: x(2,9) + x(3,9) + x(4,9) + x(5,9) + x(6,9) <= 1
 hallway(2,9)_constraint: x(2,6) + x(2,7) + x(2,8) + x(2,9) + x(3,9)
   + x(4,9) + x(5,9) + x(6,9) >= 1
 light(3,1)_constraint_1: x(3,1) + x(3,2) + x(3,3) + x(3,4) + x(3,5)
   + x(3,6) + x(3,7) + x(3,8) + x(3,9) + x(3,10) <= 1
 light(3,1)_constraint_2: x(2,1) + x(3,1) + x(4,1) + x(5,1) + x(6,1)
   + x(7,1) + x(8,1) + x(9,1) + x(10,1) <= 1
 hallway(3,1)_constraint: x(2,1) + x(3,1) + x(3,2) + x(3,3) + x(3,4)
   + x(3,5) + x(3,6) + x(3,7) + x(3,8) + x(3,9) + x(3,10) + x(4,1) + x(5,1)
   + x(6,1) + x(7,1) + x(8,1) + x(9,1) + x(10,1) >= 1
 light(3,2)_constraint_1: x(3,1) + x(3,2) + x(3,3) + x(3,4) + x(3,5)
   + x(3,6) + x(3,7) + x(3,8) + x(3,9) + x(3,10) <= 1
 light(3,2)_constraint_2: x(1,2) + x(2,2) + x(3,2) + x(4,2) + x(5,2)
   + x(6,2) + x(7,2) + x(8,2) + x(9,2) + x(10,2) <= 1
 hallway(3,2)_constraint: x(1,2) + x(2,2) + x(3,1) + x(3,2) + x(3,3)
   + x(3,4) + x(3,5) + x(3,6) + x(3,7) + x(3,8) + x(3,9) + x(3,10) + x(4,2)
   + x(5,2) + x(6,2) + x(7,2) + x(8,2) + x(9,2) + x(10,2) >= 1
 light(3,3)_constraint_1: x(3,1) + x(3,2) + x(3,3) + x(3,4) + x(3,5)
   + x(3,6) + x(3,7) + x(3,8) + x(3,9) + x(3,10) <= 1
 light(3,3)_constraint_2: x(1,3) + x(2,3) + x(3,3) + x(4,3) + x(5,3)
   + x(6,3) + x(7,3) <= 1
 hallway(3,3)_constraint: x(1,3) + x(2,3) + x(3,1) + x(3,2) + x(3,3)
   + x(3,4) + x(3,5) + x(3,6) + x(3,7) + x(3,8) + x(3,9) + x(3,10) + x(4,3)
   + x(5,3) + x(6,3) + x(7,3) >= 1
 light(3,4)_constraint_1: x(3,1) + x(3,2) + x(3,3) + x(3,4) + x(3,5)
   + x(3,6) + x(3,7) + x(3,8) + x(3,9) + x(3,10) <= 1
 light(3,4)_constraint_2: x(1,4) + x(2,4) + x(3,4) + x(4,4) + x(5,4) <= 1
 hallway(3,4)_constraint: x(1,4) + x(2,4) + x(3,1) + x(3,2) + x(3,3)
   + x(3,4) + x(3,5) + x(3,6) + x(3,7) + x(3,8) + x(3,9) + x(3,10) + x(4,4)
   + x(5,4) >= 1
 light(3,5)_constraint_1: x(3,1) + x(3,2) + x(3,3) + x(3,4) + x(3,5)
   + x(3,6) + x(3,7) + x(3,8) + x(3,9) + x(3,10) <= 1
 light(3,5)_constraint_2: x(3,5) + x(4,5) + x(5,5) + x(6,5) <= 1
 hallway(3,5)_constraint: x(3,1) + x(3,2) + x(3,3) + x(3,4) + x(3,5)
   + x(3,6) + x(3,7) + x(3,8) + x(3,9) + x(3,10) + x(4,5) + x(5,5) + x(6,5)
   >= 1
 light(3,6)_constraint_1: x(3,1) + x(3,2) + x(3,3) + x(3,4) + x(3,5)
   + x(3,6) + x(3,7) + x(3,8) + x(3,9) + x(3,10) <= 1
 light(3,6)_constraint_2: x(2,6) + x(3,6) + x(4,6) + x(5,6) + x(6,6)
   + x(7,6) <= 1
 hallway(3,6)_constraint: x(2,6) + x(3,1) + x(3,2) + x(3,3) + x(3,4)
   + x(3,5) + x(3,6) + x(3,7) + x(3,8) + x(3,9) + x(3,10) + x(4,6) + x(5,6)
   + x(6,6) + x(7,6) >= 1
 light(3,7)_constraint_1: x(3,1) + x(3,2) + x(3,3) + x(3,4) + x(3,5)
   + x(3,6) + x(3,7) + x(3,8) + x(3,9) + x(3,10) <= 1
 light(3,7)_constraint_2: x(2,7) + x(3,7) + x(4,7) + x(5,7) + x(6,7) <= 1
 hallway(3,7)_constraint: x(2,7) + x(3,1) + x(3,2) + x(3,3) + x(3,4)
   + x(3,5) + x(3,6) + x(3,7) + x(3,8) + x(3,9) + x(3,10) + x(4,7) + x(5,7)
   + x(6,7) >= 1
 light(3,8)_constraint_1: x(3,1) + x(3,2) + x(3,3) + x(3,4) + x(3,5)
   + x(3,6) + x(3,7) + x(3,8) + x(3,9) + x(3,10) <= 1
 light(3,8)_constraint_2: x(2,8) + x(3,8) + x(4,8) + x(5,8) + x(6,8)
   + x(7,8) <= 1
 hallway(3,8)_constraint: x(2,8) + x(3,1) + x(3,2) + x(3,3) + x(3,4)
   + x(3,5) + x(3,6) + x(3,7) + x(3,8) + x(3,9) + x(3,10) + x(4,8) + x(5,8)
   + x(6,8) + x(7,8) >= 1
 light(3,9)_constraint_1: x(3,1) + x(3,2) + x(3,3) + x(3,4) + x(3,5)
   + x(3,6) + x(3,7) + x(3,8) + x(3,9) + x(3,10) <= 1
 light(3,9)_constraint_2: x(2,9) + x(3,9) + x(4,9) + x(5,9) + x(6,9) <= 1
 hallway(3,9)_constraint: x(2,9) + x(3,1) + x(3,2) + x(3,3) + x(3,4)
   + x(3,5) + x(3,6) + x(3,7) + x(3,8) + x(3,9) + x(3,10) + x(4,9) + x(5,9)
   + x(6,9) >= 1
 light(3,10)_constraint_1: x(3,1) + x(3,2) + x(3,3) + x(3,4) + x(3,5)
   + x(3,6) + x(3,7) + x(3,8) + x(3,9) + x(3,10) <= 1
 light(3,10)_constraint_2: x(3,10) <= 1
 hallway(3,10)_constraint: x(3,1) + x(3,2) + x(3,3) + x(3,4) + x(3,5)
   + x(3,6) + x(3,7) + x(3,8) + x(3,9) + x(3,10) >= 1
 light(4,1)_constraint_1: x(4,1) + x(4,2) + x(4,3) + x(4,4) + x(4,5)
   + x(4,6) + x(4,7) + x(4,8) + x(4,9) <= 1
 light(4,1)_constraint_2: x(2,1) + x(3,1) + x(4,1) + x(5,1) + x(6,1)
   + x(7,1) + x(8,1) + x(9,1) + x(10,1) <= 1
 hallway(4,1)_constraint: x(2,1) + x(3,1) + x(4,1) + x(4,2) + x(4,3)
   + x(4,4) + x(4,5) + x(4,6) + x(4,7) + x(4,8) + x(4,9) + x(5,1) + x(6,1)
   + x(7,1) + x(8,1) + x(9,1) + x(10,1) >= 1
 light(4,2)_constraint_1: x(4,1) + x(4,2) + x(4,3) + x(4,4) + x(4,5)
   + x(4,6) + x(4,7) + x(4,8) + x(4,9) <= 1
 light(4,2)_constraint_2: x(1,2) + x(2,2) + x(3,2) + x(4,2) + x(5,2)
   + x(6,2) + x(7,2) + x(8,2) + x(9,2) + x(10,2) <= 1
 hallway(4,2)_constraint: x(1,2) + x(2,2) + x(3,2) + x(4,1) + x(4,2)
   + x(4,3) + x(4,4) + x(4,5) + x(4,6) + x(4,7) + x(4,8) + x(4,9) + x(5,2)
   + x(6,2) + x(7,2) + x(8,2) + x(9,2) + x(10,2) >= 1
 light(4,3)_constraint_1: x(4,1) + x(4,2) + x(4,3) + x(4,4) + x(4,5)
   + x(4,6) + x(4,7) + x(4,8) + x(4,9) <= 1
 light(4,3)_constraint_2: x(1,3) + x(2,3) + x(3,3) + x(4,3) + x(5,3)
   + x(6,3) + x(7,3) <= 1
 hallway(4,3)_constraint: x(1,3) + x(2,3) + x(3,3) + x(4,1) + x(4,2)
   + x(4,3) + x(4,4) + x(4,5) + x(4,6) + x(4,7) + x(4,8) + x(4,9) + x(5,3)
   + x(6,3) + x(7,3) >= 1
 light(4,4)_constraint_1: x(4,1) + x(4,2) + x(4,3) + x(4,4) + x(4,5)
   + x(4,6) + x(4,7) + x(4,8) + x(4,9) <= 1
 light(4,4)_constraint_2: x(1,4) + x(2,4) + x(3,4) + x(4,4) + x(5,4) <= 1
 hallway(4,4)_constraint: x(1,4) + x(2,4) + x(3,4) + x(4,1) + x(4,2)
   + x(4,3) + x(4,4) + x(4,5) + x(4,6) + x(4,7) + x(4,8) + x(4,9) + x(5,4)
   >= 1
 light(4,5)_constraint_1: x(4,1) + x(4,2) + x(4,3) + x(4,4) + x(4,5)
   + x(4,6) + x(4,7) + x(4,8) + x(4,9) <= 1
 light(4,5)_constraint_2: x(3,5) + x(4,5) + x(5,5) + x(6,5) <= 1
 hallway(4,5)_constraint: x(3,5) + x(4,1) + x(4,2) + x(4,3) + x(4,4)
   + x(4,5) + x(4,6) + x(4,7) + x(4,8) + x(4,9) + x(5,5) + x(6,5) >= 1
 light(4,6)_constraint_1: x(4,1) + x(4,2) + x(4,3) + x(4,4) + x(4,5)
   + x(4,6) + x(4,7) + x(4,8) + x(4,9) <= 1
 light(4,6)_constraint_2: x(2,6) + x(3,6) + x(4,6) + x(5,6) + x(6,6)
   + x(7,6) <= 1
 hallway(4,6)_constraint: x(2,6) + x(3,6) + x(4,1) + x(4,2) + x(4,3)
   + x(4,4) + x(4,5) + x(4,6) + x(4,7) + x(4,8) + x(4,9) + x(5,6) + x(6,6)
   + x(7,6) >= 1
 light(4,7)_constraint_1: x(4,1) + x(4,2) + x(4,3) + x(4,4) + x(4,5)
   + x(4,6) + x(4,7) + x(4,8) + x(4,9) <= 1
 light(4,7)_constraint_2: x(2,7) + x(3,7) + x(4,7) + x(5,7) + x(6,7) <= 1
 hallway(4,7)_constraint: x(2,7) + x(3,7) + x(4,1) + x(4,2) + x(4,3)
   + x(4,4) + x(4,5) + x(4,6) + x(4,7) + x(4,8) + x(4,9) + x(5,7) + x(6,7)
   >= 1
 light(4,8)_constraint_1: x(4,1) + x(4,2) + x(4,3) + x(4,4) + x(4,5)
   + x(4,6) + x(4,7) + x(4,8) + x(4,9) <= 1
 light(4,8)_constraint_2: x(2,8) + x(3,8) + x(4,8) + x(5,8) + x(6,8)
   + x(7,8) <= 1
 hallway(4,8)_constraint: x(2,8) + x(3,8) + x(4,1) + x(4,2) + x(4,3)
   + x(4,4) + x(4,5) + x(4,6) + x(4,7) + x(4,8) + x(4,9) + x(5,8) + x(6,8)
   + x(7,8) >= 1
 light(4,9)_constraint_1: x(4,1) + x(4,2) + x(4,3) + x(4,4) + x(4,5)
   + x(4,6) + x(4,7) + x(4,8) + x(4,9) <= 1
 light(4,9)_constraint_2: x(2,9) + x(3,9) + x(4,9) + x(5,9) + x(6,9) <= 1
 hallway(4,9)_constraint: x(2,9) + x(3,9) + x(4,1) + x(4,2) + x(4,3)
   + x(4,4) + x(4,5) + x(4,6) + x(4,7) + x(4,8) + x(4,9) + x(5,9) + x(6,9)
   >= 1
 wall(4,10)_constraint: x(3,10) + x(4,9) + x(5,10) = 1
 light(5,1)_constraint_1: x(5,1) + x(5,2) + x(5,3) + x(5,4) + x(5,5)
   + x(5,6) + x(5,7) + x(5,8) + x(5,9) + x(5,10) <= 1
 light(5,1)_constraint_2: x(2,1) + x(3,1) + x(4,1) + x(5,1) + x(6,1)
   + x(7,1) + x(8,1) + x(9,1) + x(10,1) <= 1
 hallway(5,1)_constraint: x(2,1) + x(3,1) + x(4,1) + x(5,1) + x(5,2)
   + x(5,3) + x(5,4) + x(5,5) + x(5,6) + x(5,7) + x(5,8) + x(5,9) + x(5,10)
   + x(6,1) + x(7,1) + x(8,1) + x(9,1) + x(10,1) >= 1
 light(5,2)_constraint_1: x(5,1) + x(5,2) + x(5,3) + x(5,4) + x(5,5)
   + x(5,6) + x(5,7) + x(5,8) + x(5,9) + x(5,10) <= 1
 light(5,2)_constraint_2: x(1,2) + x(2,2) + x(3,2) + x(4,2) + x(5,2)
   + x(6,2) + x(7,2) + x(8,2) + x(9,2) + x(10,2) <= 1
 hallway(5,2)_constraint: x(1,2) + x(2,2) + x(3,2) + x(4,2) + x(5,1)
   + x(5,2) + x(5,3) + x(5,4) + x(5,5) + x(5,6) + x(5,7) + x(5,8) + x(5,9)
   + x(5,10) + x(6,2) + x(7,2) + x(8,2) + x(9,2) + x(10,2) >= 1
 light(5,3)_constraint_1: x(5,1) + x(5,2) + x(5,3) + x(5,4) + x(5,5)
   + x(5,6) + x(5,7) + x(5,8) + x(5,9) + x(5,10) <= 1
 light(5,3)_constraint_2: x(1,3) + x(2,3) + x(3,3) + x(4,3) + x(5,3)
   + x(6,3) + x(7,3) <= 1
 hallway(5,3)_constraint: x(1,3) + x(2,3) + x(3,3) + x(4,3) + x(5,1)
   + x(5,2) + x(5,3) + x(5,4) + x(5,5) + x(5,6) + x(5,7) + x(5,8) + x(5,9)
   + x(5,10) + x(6,3) + x(7,3) >= 1
 light(5,4)_constraint_1: x(5,1) + x(5,2) + x(5,3) + x(5,4) + x(5,5)
   + x(5,6) + x(5,7) + x(5,8) + x(5,9) + x(5,10) <= 1
 light(5,4)_constraint_2: x(1,4) + x(2,4) + x(3,4) + x(4,4) + x(5,4) <= 1
 hallway(5,4)_constraint: x(1,4) + x(2,4) + x(3,4) + x(4,4) + x(5,1)
   + x(5,2) + x(5,3) + x(5,4) + x(5,5) + x(5,6) + x(5,7) + x(5,8) + x(5,9)
   + x(5,10) >= 1
 light(5,5)_constraint_1: x(5,1) + x(5,2) + x(5,3) + x(5,4) + x(5,5)
   + x(5,6) + x(5,7) + x(5,8) + x(5,9) + x(5,10) <= 1
 light(5,5)_constraint_2: x(3,5) + x(4,5) + x(5,5) + x(6,5) <= 1
 hallway(5,5)_constraint: x(3,5) + x(4,5) + x(5,1) + x(5,2) + x(5,3)
   + x(5,4) + x(5,5) + x(5,6) + x(5,7) + x(5,8) + x(5,9) + x(5,10) + x(6,5)
   >= 1
 light(5,6)_constraint_1: x(5,1) + x(5,2) + x(5,3) + x(5,4) + x(5,5)
   + x(5,6) + x(5,7) + x(5,8) + x(5,9) + x(5,10) <= 1
 light(5,6)_constraint_2: x(2,6) + x(3,6) + x(4,6) + x(5,6) + x(6,6)
   + x(7,6) <= 1
 hallway(5,6)_constraint: x(2,6) + x(3,6) + x(4,6) + x(5,1) + x(5,2)
   + x(5,3) + x(5,4) + x(5,5) + x(5,6) + x(5,7) + x(5,8) + x(5,9) + x(5,10)
   + x(6,6) + x(7,6) >= 1
 light(5,7)_constraint_1: x(5,1) + x(5,2) + x(5,3) + x(5,4) + x(5,5)
   + x(5,6) + x(5,7) + x(5,8) + x(5,9) + x(5,10) <= 1
 light(5,7)_constraint_2: x(2,7) + x(3,7) + x(4,7) + x(5,7) + x(6,7) <= 1
 hallway(5,7)_constraint: x(2,7) + x(3,7) + x(4,7) + x(5,1) + x(5,2)
   + x(5,3) + x(5,4) + x(5,5) + x(5,6) + x(5,7) + x(5,8) + x(5,9) + x(5,10)
   + x(6,7) >= 1
 light(5,8)_constraint_1: x(5,1) + x(5,2) + x(5,3) + x(5,4) + x(5,5)
   + x(5,6) + x(5,7) + x(5,8) + x(5,9) + x(5,10) <= 1
 light(5,8)_constraint_2: x(2,8) + x(3,8) + x(4,8) + x(5,8) + x(6,8)
   + x(7,8) <= 1
 hallway(5,8)_constraint: x(2,8) + x(3,8) + x(4,8) + x(5,1) + x(5,2)
   + x(5,3) + x(5,4) + x(5,5) + x(5,6) + x(5,7) + x(5,8) + x(5,9) + x(5,10)
   + x(6,8) + x(7,8) >= 1
 light(5,9)_constraint_1: x(5,1) + x(5,2) + x(5,3) + x(5,4) + x(5,5)
   + x(5,6) + x(5,7) + x(5,8) + x(5,9) + x(5,10) <= 1
 light(5,9)_constraint_2: x(2,9) + x(3,9) + x(4,9) + x(5,9) + x(6,9) <= 1
 hallway(5,9)_constraint: x(2,9) + x(3,9) + x(4,9) + x(5,1) + x(5,2)
   + x(5,3) + x(5,4) + x(5,5) + x(5,6) + x(5,7) + x(5,8) + x(5,9) + x(5,10)
   + x(6,9) >= 1
 light(5,10)_constraint_1: x(5,1) + x(5,2) + x(5,3) + x(5,4) + x(5,5)
   + x(5,6) + x(5,7) + x(5,8) + x(5,9) + x(5,10) <= 1
 light(5,10)_constraint_2: x(5,10) + x(6,10) + x(7,10) + x(8,10) + x(9,10)
   + x(10,10) <= 1
 hallway(5,10)_constraint: x(5,1) + x(5,2) + x(5,3) + x(5,4) + x(5,5)
   + x(5,6) + x(5,7) + x(5,8) + x(5,9) + x(5,10) + x(6,10) + x(7,10)
   + x(8,10) + x(9,10) + x(10,10) >= 1
 light(6,1)_constraint_1: x(6,1) + x(6,2) + x(6,3) <= 1
 light(6,1)_constraint_2: x(2,1) + x(3,1) + x(4,1) + x(5,1) + x(6,1)
   + x(7,1) + x(8,1) + x(9,1) + x(10,1) <= 1
 hallway(6,1)_constraint: x(2,1) + x(3,1) + x(4,1) + x(5,1) + x(6,1)
   + x(6,2) + x(6,3) + x(7,1) + x(8,1) + x(9,1) + x(10,1) >= 1
 light(6,2)_constraint_1: x(6,1) + x(6,2) + x(6,3) <= 1
 light(6,2)_constraint_2: x(1,2) + x(2,2) + x(3,2) + x(4,2) + x(5,2)
   + x(6,2) + x(7,2) + x(8,2) + x(9,2) + x(10,2) <= 1
 hallway(6,2)_constraint: x(1,2) + x(2,2) + x(3,2) + x(4,2) + x(5,2)
   + x(6,1) + x(6,2) + x(6,3) + x(7,2) + x(8,2) + x(9,2) + x(10,2) >= 1
 light(6,3)_constraint_1: x(6,1) + x(6,2) + x(6,3) <= 1
 light(6,3)_constraint_2: x(1,3) + x(2,3) + x(3,3) + x(4,3) + x(5,3)
   + x(6,3) + x(7,3) <= 1
 hallway(6,3)_constraint: x(1,3) + x(2,3) + x(3,3) + x(4,3) + x(5,3)
   + x(6,1) + x(6,2) + x(6,3) + x(7,3) >= 1
 wall(6,4)_constraint: x(5,4) + x(6,3) + x(6,5) + x(7,4) = 2
 light(6,5)_constraint_1: x(6,5) + x(6,6) + x(6,7) + x(6,8) + x(6,9)
   + x(6,10) <= 1
 light(6,5)_constraint_2: x(3,5) + x(4,5) + x(5,5) + x(6,5) <= 1
 hallway(6,5)_constraint: x(3,5) + x(4,5) + x(5,5) + x(6,5) + x(6,6)
   + x(6,7) + x(6,8) + x(6,9) + x(6,10) >= 1
 light(6,6)_constraint_1: x(6,5) + x(6,6) + x(6,7) + x(6,8) + x(6,9)
   + x(6,10) <= 1
 light(6,6)_constraint_2: x(2,6) + x(3,6) + x(4,6) + x(5,6) + x(6,6)
   + x(7,6) <= 1
 hallway(6,6)_constraint: x(2,6) + x(3,6) + x(4,6) + x(5,6) + x(6,5)
   + x(6,6) + x(6,7) + x(6,8) + x(6,9) + x(6,10) + x(7,6) >= 1
 light(6,7)_constraint_1: x(6,5) + x(6,6) + x(6,7) + x(6,8) + x(6,9)
   + x(6,10) <= 1
 light(6,7)_constraint_2: x(2,7) + x(3,7) + x(4,7) + x(5,7) + x(6,7) <= 1
 hallway(6,7)_constraint: x(2,7) + x(3,7) + x(4,7) + x(5,7) + x(6,5)
   + x(6,6) + x(6,7) + x(6,8) + x(6,9) + x(6,10) >= 1
 light(6,8)_constraint_1: x(6,5) + x(6,6) + x(6,7) + x(6,8) + x(6,9)
   + x(6,10) <= 1
 light(6,8)_constraint_2: x(2,8) + x(3,8) + x(4,8) + x(5,8) + x(6,8)
   + x(7,8) <= 1
 hallway(6,8)_constraint: x(2,8) + x(3,8) + x(4,8) + x(5,8) + x(6,5)
   + x(6,6) + x(6,7) + x(6,8) + x(6,9) + x(6,10) + x(7,8) >= 1
 light(6,9)_constraint_1: x(6,5) + x(6,6) + x(6,7) + x(6,8) + x(6,9)
   + x(6,10) <= 1
 light(6,9)_constraint_2: x(2,9) + x(3,9) + x(4,9) + x(5,9) + x(6,9) <= 1
 hallway(6,9)_constraint: x(2,9) + x(3,9) + x(4,9) + x(5,9) + x(6,5)
   + x(6,6) + x(6,7) + x(6,8) + x(6,9) + x(6,10) >= 1
 light(6,10)_constraint_1: x(6,5) + x(6,6) + x(6,7) + x(6,8) + x(6,9)
   + x(6,10) <= 1
 light(6,10)_constraint_2: x(5,10) + x(6,10) + x(7,10) + x(8,10) + x(9,10)
   + x(10,10) <= 1
 hallway(6,10)_constraint: x(5,10) + x(6,5) + x(6,6) + x(6,7) + x(6,8)
   + x(6,9) + x(6,10) + x(7,10) + x(8,10) + x(9,10) + x(10,10) >= 1
 light(7,1)_constraint_1: x(7,1) + x(7,2) + x(7,3) + x(7,4) <= 1
 light(7,1)_constraint_2: x(2,1) + x(3,1) + x(4,1) + x(5,1) + x(6,1)
   + x(7,1) + x(8,1) + x(9,1) + x(10,1) <= 1
 hallway(7,1)_constraint: x(2,1) + x(3,1) + x(4,1) + x(5,1) + x(6,1)
   + x(7,1) + x(7,2) + x(7,3) + x(7,4) + x(8,1) + x(9,1) + x(10,1) >= 1
 light(7,2)_constraint_1: x(7,1) + x(7,2) + x(7,3) + x(7,4) <= 1
 light(7,2)_constraint_2: x(1,2) + x(2,2) + x(3,2) + x(4,2) + x(5,2)
   + x(6,2) + x(7,2) + x(8,2) + x(9,2) + x(10,2) <= 1
 hallway(7,2)_constraint: x(1,2) + x(2,2) + x(3,2) + x(4,2) + x(5,2)
   + x(6,2) + x(7,1) + x(7,2) + x(7,3) + x(7,4) + x(8,2) + x(9,2) + x(10,2)
   >= 1
 light(7,3)_constraint_1: x(7,1) + x(7,2) + x(7,3) + x(7,4) <= 1
 light(7,3)_constraint_2: x(1,3) + x(2,3) + x(3,3) + x(4,3) + x(5,3)
   + x(6,3) + x(7,3) <= 1
 hallway(7,3)_constraint: x(1,3) + x(2,3) + x(3,3) + x(4,3) + x(5,3)
   + x(6,3) + x(7,1) + x(7,2) + x(7,3) + x(7,4) >= 1
 light(7,4)_constraint_1: x(7,1) + x(7,2) + x(7,3) + x(7,4) <= 1
 light(7,4)_constraint_2: x(7,4) + x(8,4) + x(9,4) <= 1
 hallway(7,4)_constraint: x(7,1) + x(7,2) + x(7,3) + x(7,4) + x(8,4)
   + x(9,4) >= 1
 wall(7,5)_constraint: x(6,5) + x(7,4) + x(7,6) + x(8,5) = 1
 light(7,6)_constraint_1: x(7,6) <= 1
 light(7,6)_constraint_2: x(2,6) + x(3,6) + x(4,6) + x(5,6) + x(6,6)
   + x(7,6) <= 1
 hallway(7,6)_constraint: x(2,6) + x(3,6) + x(4,6) + x(5,6) + x(6,6)
   + x(7,6) >= 1
 wall(7,7)_constraint: x(6,7) + x(7,6) + x(7,8) + x(8,7) = 1
 light(7,8)_constraint_1: x(7,8) <= 1
 light(7,8)_constraint_2: x(2,8) + x(3,8) + x(4,8) + x(5,8) + x(6,8)
   + x(7,8) <= 1
 hallway(7,8)_constraint: x(2,8) + x(3,8) + x(4,8) + x(5,8) + x(6,8)
   + x(7,8) >= 1
 light(7,10)_constraint_1: x(7,10) <= 1
 light(7,10)_constraint_2: x(5,10) + x(6,10) + x(7,10) + x(8,10) + x(9,10)
   + x(10,10) <= 1
 hallway(7,10)_constraint: x(5,10) + x(6,10) + x(7,10) + x(8,10) + x(9,10)
   + x(10,10) >= 1
 light(8,1)_constraint_1: x(8,1) + x(8,2) <= 1
 light(8,1)_constraint_2: x(2,1) + x(3,1) + x(4,1) + x(5,1) + x(6,1)
   + x(7,1) + x(8,1) + x(9,1) + x(10,1) <= 1
 hallway(8,1)_constraint: x(2,1) + x(3,1) + x(4,1) + x(5,1) + x(6,1)
   + x(7,1) + x(8,1) + x(8,2) + x(9,1) + x(10,1) >= 1
 light(8,2)_constraint_1: x(8,1) + x(8,2) <= 1
 light(8,2)_constraint_2: x(1,2) + x(2,2) + x(3,2) + x(4,2) + x(5,2)
   + x(6,2) + x(7,2) + x(8,2) + x(9,2) + x(10,2) <= 1
 hallway(8,2)_constraint: x(1,2) + x(2,2) + x(3,2) + x(4,2) + x(5,2)
   + x(6,2) + x(7,2) + x(8,1) + x(8,2) + x(9,2) + x(10,2) >= 1
 wall(8,3)_constraint: x(7,3) + x(8,2) + x(8,4) + x(9,3) = 2
 light(8,4)_constraint_1: x(8,4) + x(8,5) <= 1
 light(8,4)_constraint_2: x(7,4) + x(8,4) + x(9,4) <= 1
 hallway(8,4)_constraint: x(7,4) + x(8,4) + x(8,5) + x(9,4) >= 1
 light(8,5)_constraint_1: x(8,4) + x(8,5) <= 1
 light(8,5)_constraint_2: x(8,5) + x(9,5) + x(10,5) <= 1
 hallway(8,5)_constraint: x(8,4) + x(8,5) + x(9,5) + x(10,5) >= 1
 light(8,7)_constraint_1: x(8,7) <= 1
 light(8,7)_constraint_2: x(8,7) + x(9,7) + x(10,7) <= 1
 hallway(8,7)_constraint: x(8,7) + x(9,7) + x(10,7) >= 1
 wall(8,8)_constraint: x(7,8) + x(8,7) + x(8,9) + x(9,8) = 0
 light(8,9)_constraint_1: x(8,9) + x(8,10) <= 1
 light(8,9)_constraint_2: x(8,9) + x(9,9) + x(10,9) <= 1
 hallway(8,9)_constraint: x(8,9) + x(8,10) + x(9,9) + x(10,9) >= 1
 light(8,10)_constraint_1: x(8,9) + x(8,10) <= 1
 light(8,10)_constraint_2: x(5,10) + x(6,10) + x(7,10) + x(8,10) + x(9,10)
   + x(10,10) <= 1
 hallway(8,10)_constraint: x(5,10) + x(6,10) + x(7,10) + x(8,9) + x(8,10)
   + x(9,10) + x(10,10) >= 1
 light(9,1)_constraint_1: x(9,1) + x(9,2) + x(9,3) + x(9,4) + x(9,5)
   + x(9,6) + x(9,7) + x(9,8) + x(9,9) + x(9,10) <= 1
 light(9,1)_constraint_2: x(2,1) + x(3,1) + x(4,1) + x(5,1) + x(6,1)
   + x(7,1) + x(8,1) + x(9,1) + x(10,1) <= 1
 hallway(9,1)_constraint: x(2,1) + x(3,1) + x(4,1) + x(5,1) + x(6,1)
   + x(7,1) + x(8,1) + x(9,1) + x(9,2) + x(9,3) + x(9,4) + x(9,5) + x(9,6)
   + x(9,7) + x(9,8) + x(9,9) + x(9,10) + x(10,1) >= 1
 light(9,2)_constraint_1: x(9,1) + x(9,2) + x(9,3) + x(9,4) + x(9,5)
   + x(9,6) + x(9,7) + x(9,8) + x(9,9) + x(9,10) <= 1
 light(9,2)_constraint_2: x(1,2) + x(2,2) + x(3,2) + x(4,2) + x(5,2)
   + x(6,2) + x(7,2) + x(8,2) + x(9,2) + x(10,2) <= 1
 hallway(9,2)_constraint: x(1,2) + x(2,2) + x(3,2) + x(4,2) + x(5,2)
   + x(6,2) + x(7,2) + x(8,2) + x(9,1) + x(9,2) + x(9,3) + x(9,4) + x(9,5)
   + x(9,6) + x(9,7) + x(9,8) + x(9,9) + x(9,10) + x(10,2) >= 1
 light(9,3)_constraint_1: x(9,1) + x(9,2) + x(9,3) + x(9,4) + x(9,5)
   + x(9,6) + x(9,7) + x(9,8) + x(9,9) + x(9,10) <= 1
 light(9,3)_constraint_2: x(9,3) + x(10,3) <= 1
 hallway(9,3)_constraint: x(9,1) + x(9,2) + x(9,3) + x(9,4) + x(9,5)
   + x(9,6) + x(9,7) + x(9,8) + x(9,9) + x(9,10) + x(10,3) >= 1
 light(9,4)_constraint_1: x(9,1) + x(9,2) + x(9,3) + x(9,4) + x(9,5)
   + x(9,6) + x(9,7) + x(9,8) + x(9,9) + x(9,10) <= 1
 light(9,4)_constraint_2: x(7,4) + x(8,4) + x(9,4) <= 1
 hallway(9,4)_constraint: x(7,4) + x(8,4) + x(9,1) + x(9,2) + x(9,3)
   + x(9,4) + x(9,5) + x(9,6) + x(9,7) + x(9,8) + x(9,9) + x(9,10) >= 1
 light(9,5)_constraint_1: x(9,1) + x(9,2) + x(9,3) + x(9,4) + x(9,5)
   + x(9,6) + x(9,7) + x(9,8) + x(9,9) + x(9,10) <= 1
 light(9,5)_constraint_2: x(8,5) + x(9,5) + x(10,5) <= 1
 hallway(9,5)_constraint: x(8,5) + x(9,1) + x(9,2) + x(9,3) + x(9,4)
   + x(9,5) + x(9,6) + x(9,7) + x(9,8) + x(9,9) + x(9,10) + x(10,5) >= 1
 light(9,6)_constraint_1: x(9,1) + x(9,2) + x(9,3) + x(9,4) + x(9,5)
   + x(9,6) + x(9,7) + x(9,8) + x(9,9) + x(9,10) <= 1
 light(9,6)_constraint_2: x(9,6) + x(10,6) <= 1
 hallway(9,6)_constraint: x(9,1) + x(9,2) + x(9,3) + x(9,4) + x(9,5)
   + x(9,6) + x(9,7) + x(9,8) + x(9,9) + x(9,10) + x(10,6) >= 1
 light(9,7)_constraint_1: x(9,1) + x(9,2) + x(9,3) + x(9,4) + x(9,5)
   + x(9,6) + x(9,7) + x(9,8) + x(9,9) + x(9,10) <= 1
 light(9,7)_constraint_2: x(8,7) + x(9,7) + x(10,7) <= 1
 hallway(9,7)_constraint: x(8,7) + x(9,1) + x(9,2) + x(9,3) + x(9,4)
   + x(9,5) + x(9,6) + x(9,7) + x(9,8) + x(9,9) + x(9,10) + x(10,7) >= 1
 light(9,8)_constraint_1: x(9,1) + x(9,2) + x(9,3) + x(9,4) + x(9,5)
   + x(9,6) + x(9,7) + x(9,8) + x(9,9) + x(9,10) <= 1
 light(9,8)_constraint_2: x(9,8) + x(10,8) <= 1
 hallway(9,8)_constraint: x(9,1) + x(9,2) + x(9,3) + x(9,4) + x(9,5)
   + x(9,6) + x(9,7) + x(9,8) + x(9,9) + x(9,10) + x(10,8) >= 1
 light(9,9)_constraint_1: x(9,1) + x(9,2) + x(9,3) + x(9,4) + x(9,5)
   + x(9,6) + x(9,7) + x(9,8) + x(9,9) + x(9,10) <= 1
 light(9,9)_constraint_2: x(8,9) + x(9,9) + x(10,9) <= 1
 hallway(9,9)_constraint: x(8,9) + x(9,1) + x(9,2) + x(9,3) + x(9,4)
   + x(9,5) + x(9,6) + x(9,7) + x(9,8) + x(9,9) + x(9,10) + x(10,9) >= 1
 light(9,10)_constraint_1: x(9,1) + x(9,2) + x(9,3) + x(9,4) + x(9,5)
   + x(9,6) + x(9,7) + x(9,8) + x(9,9) + x(9,10) <= 1
 light(9,10)_constraint_2: x(5,10) + x(6,10) + x(7,10) + x(8,10) + x(9,10)
   + x(10,10) <= 1
 hallway(9,10)_constraint: x(5,10) + x(6,10) + x(7,10) + x(8,10) + x(9,1)
   + x(9,2) + x(9,3) + x(9,4) + x(9,5) + x(9,6) + x(9,7) + x(9,8) + x(9,9)
   + x(9,10) + x(10,10) >= 1
 light(10,1)_constraint_1: x(10,1) + x(10,2) + x(10,3) <= 1
 light(10,1)_constraint_2: x(2,1) + x(3,1) + x(4,1) + x(5,1) + x(6,1)
   + x(7,1) + x(8,1) + x(9,1) + x(10,1) <= 1
 hallway(10,1)_constraint: x(2,1) + x(3,1) + x(4,1) + x(5,1) + x(6,1)
   + x(7,1) + x(8,1) + x(9,1) + x(10,1) + x(10,2) + x(10,3) >= 1
 light(10,2)_constraint_1: x(10,1) + x(10,2) + x(10,3) <= 1
 light(10,2)_constraint_2: x(1,2) + x(2,2) + x(3,2) + x(4,2) + x(5,2)
   + x(6,2) + x(7,2) + x(8,2) + x(9,2) + x(10,2) <= 1
 hallway(10,2)_constraint: x(1,2) + x(2,2) + x(3,2) + x(4,2) + x(5,2)
   + x(6,2) + x(7,2) + x(8,2) + x(9,2) + x(10,1) + x(10,2) + x(10,3) >= 1
 light(10,3)_constraint_1: x(10,1) + x(10,2) + x(10,3) <= 1
 light(10,3)_constraint_2: x(9,3) + x(10,3) <= 1
 hallway(10,3)_constraint: x(9,3) + x(10,1) + x(10,2) + x(10,3) >= 1
 wall(10,4)_constraint: x(9,4) + x(10,3) + x(10,5) = 2
 light(10,5)_constraint_1: x(10,5) + x(10,6) + x(10,7) + x(10,8) + x(10,9)
   + x(10,10) <= 1
 light(10,5)_constraint_2: x(8,5) + x(9,5) + x(10,5) <= 1
 hallway(10,5)_constraint: x(8,5) + x(9,5) + x(10,5) + x(10,6) + x(10,7)
   + x(10,8) + x(10,9) + x(10,10) >= 1
 light(10,6)_constraint_1: x(10,5) + x(10,6) + x(10,7) + x(10,8) + x(10,9)
   + x(10,10) <= 1
 light(10,6)_constraint_2: x(9,6) + x(10,6) <= 1
 hallway(10,6)_constraint: x(9,6) + x(10,5) + x(10,6) + x(10,7) + x(10,8)
   + x(10,9) + x(10,10) >= 1
 light(10,7)_constraint_1: x(10,5) + x(10,6) + x(10,7) + x(10,8) + x(10,9)
   + x(10,10) <= 1
 light(10,7)_constraint_2: x(8,7) + x(9,7) + x(10,7) <= 1
 hallway(10,7)_constraint: x(8,7) + x(9,7) + x(10,5) + x(10,6) + x(10,7)
   + x(10,8) + x(10,9) + x(10,10) >= 1
 light(10,8)_constraint_1: x(10,5) + x(10,6) + x(10,7) + x(10,8) + x(10,9)
   + x(10,10) <= 1
 light(10,8)_constraint_2: x(9,8) + x(10,8) <= 1
 hallway(10,8)_constraint: x(9,8) + x(10,5) + x(10,6) + x(10,7) + x(10,8)
   + x(10,9) + x(10,10) >= 1
 light(10,9)_constraint_1: x(10,5) + x(10,6) + x(10,7) + x(10,8) + x(10,9)
   + x(10,10) <= 1
 light(10,9)_constraint_2: x(8,9) + x(9,9) + x(10,9) <= 1
 hallway(10,9)_constraint: x(8,9) + x(9,9) + x(10,5) + x(10,6) + x(10,7)
   + x(10,8) + x(10,9) + x(10,10) >= 1
 light(10,10)_constraint_1: x(10,5) + x(10,6) + x(10,7) + x(10,8) + x(10,9)
   + x(10,10) <= 1
 light(10,10)_constraint_2: x(5,10) + x(6,10) + x(7,10) + x(8,10) + x(9,10)
   + x(10,10) <= 1
 hallway(10,10)_constraint: x(5,10) + x(6,10) + x(7,10) + x(8,10) + x(9,10)
   + x(10,5) + x(10,6) + x(10,7) + x(10,8) + x(10,9) + x(10,10) >= 1
Bounds
Binaries
 x(1,2) x(1,3) x(1,4) x(2,1) x(2,2) x(2,3) x(2,4) x(2,6) x(2,7) x(2,8)
 x(2,9) x(3,1) x(3,2) x(3,3) x(3,4) x(3,5) x(3,6) x(3,7) x(3,8) x(3,9)
 x(3,10) x(4,1) x(4,2) x(4,3) x(4,4) x(4,5) x(4,6) x(4,7) x(4,8) x(4,9)
 x(5,1) x(5,2) x(5,3) x(5,4) x(5,5) x(5,6) x(5,7) x(5,8) x(5,9) x(5,10)
 x(6,1) x(6,2) x(6,3) x(6,5) x(6,6) x(6,7) x(6,8) x(6,9) x(6,10) x(7,1)
 x(7,2) x(7,3) x(7,4) x(7,6) x(7,8) x(7,10) x(8,1) x(8,2) x(8,4) x(8,5)
 x(8,7) x(8,9) x(8,10) x(9,1) x(9,2) x(9,3) x(9,4) x(9,5) x(9,6) x(9,7)
 x(9,8) x(9,9) x(9,10) x(10,1) x(10,2) x(10,3) x(10,5) x(10,6) x(10,7)
 x(10,8) x(10,9) x(10,10)
End
